HorasDisponibles = 24 ; 		% Cantidad de horas habiles para que barco pueda partir

NumBarcos = 60 ; 		% Cantidad de barcos que cruzaran el canal

NumCanales = 3;  

Velocidades = [ 
66000  ,		%  Barco 1
66000  ,		%  Barco 2
66000  ,		%  Barco 3
593  ,		%  Barco 4
632  ,		%  Barco 5
360  ,		%  Barco 6
498  ,		%  Barco 7
374  ,		%  Barco 8
309  ,		%  Barco 9
379  ,		%  Barco 10
628  ,		%  Barco 11
792  ,		%  Barco 12
569  ,		%  Barco 13
230  ,		%  Barco 14
552  ,		%  Barco 15
695  ,		%  Barco 16
607  ,		%  Barco 17
537  ,		%  Barco 18
529  ,		%  Barco 19
342  ,		%  Barco 20
365  ,		%  Barco 21
313  ,		%  Barco 22
527  ,		%  Barco 23
405  ,		%  Barco 24
574  ,		%  Barco 25
531  ,		%  Barco 26
300  ,		%  Barco 27
462  ,		%  Barco 28
488  ,		%  Barco 29
670  ,		%  Barco 30
322  ,		%  Barco 31
485  ,		%  Barco 32
531  ,		%  Barco 33
289  ,		%  Barco 34
439  ,		%  Barco 35
496  ,		%  Barco 36
344  ,		%  Barco 37
487  ,		%  Barco 38
591  ,		%  Barco 39
388  ,		%  Barco 40
125  ,		%  Barco 41
570  ,		%  Barco 42
368  ,		%  Barco 43
579  ,		%  Barco 44
675  ,		%  Barco 45
683  ,		%  Barco 46
428  ,		%  Barco 47
566  ,		%  Barco 48
662  ,		%  Barco 49
603  ,		%  Barco 50
453  ,		%  Barco 51
484  ,		%  Barco 52
397  ,		%  Barco 53
655  ,		%  Barco 54
528  ,		%  Barco 55
472  ,		%  Barco 56
516  ,		%  Barco 57
754  ,		%  Barco 58
774  ,		%  Barco 59
495  ,		%  Barco 60
397  ,		%  Barco 61
601  ,		%  Barco 62
508  ,		%  Barco 63
66000  ,		%  Barco 64
66000  ,		%  Barco 65
66000  ,		%  Barco 66
 ]; 
HoraEstimadaCruce = [ 
0  ,		%  Barco 1
0  ,		%  Barco 2
0  ,		%  Barco 3
14  ,		%  Barco 4
0  ,		%  Barco 5
24  ,		%  Barco 6
16  ,		%  Barco 7
8  ,		%  Barco 8
21  ,		%  Barco 9
19  ,		%  Barco 10
11  ,		%  Barco 11
2  ,		%  Barco 12
24  ,		%  Barco 13
5  ,		%  Barco 14
9  ,		%  Barco 15
3  ,		%  Barco 16
24  ,		%  Barco 17
17  ,		%  Barco 18
7  ,		%  Barco 19
10  ,		%  Barco 20
7  ,		%  Barco 21
23  ,		%  Barco 22
15  ,		%  Barco 23
17  ,		%  Barco 24
3  ,		%  Barco 25
11  ,		%  Barco 26
17  ,		%  Barco 27
12  ,		%  Barco 28
7  ,		%  Barco 29
13  ,		%  Barco 30
3  ,		%  Barco 31
6  ,		%  Barco 32
10  ,		%  Barco 33
1  ,		%  Barco 34
6  ,		%  Barco 35
4  ,		%  Barco 36
14  ,		%  Barco 37
19  ,		%  Barco 38
14  ,		%  Barco 39
24  ,		%  Barco 40
1  ,		%  Barco 41
7  ,		%  Barco 42
0  ,		%  Barco 43
10  ,		%  Barco 44
19  ,		%  Barco 45
11  ,		%  Barco 46
10  ,		%  Barco 47
19  ,		%  Barco 48
13  ,		%  Barco 49
23  ,		%  Barco 50
1  ,		%  Barco 51
14  ,		%  Barco 52
14  ,		%  Barco 53
15  ,		%  Barco 54
24  ,		%  Barco 55
22  ,		%  Barco 56
9  ,		%  Barco 57
14  ,		%  Barco 58
21  ,		%  Barco 59
16  ,		%  Barco 60
2  ,		%  Barco 61
17  ,		%  Barco 62
24  ,		%  Barco 63
24  ,		%  Barco 64
24  ,		%  Barco 65
24  ,		%  Barco 66
 ]; 
PuntoDeArranque = [ 
0  ,		%  Barco 1
0  ,		%  Barco 2
0  ,		%  Barco 3
1  ,		%  Barco 4
0  ,		%  Barco 5
1  ,		%  Barco 6
1  ,		%  Barco 7
0  ,		%  Barco 8
1  ,		%  Barco 9
0  ,		%  Barco 10
0  ,		%  Barco 11
0  ,		%  Barco 12
1  ,		%  Barco 13
1  ,		%  Barco 14
1  ,		%  Barco 15
1  ,		%  Barco 16
1  ,		%  Barco 17
1  ,		%  Barco 18
0  ,		%  Barco 19
1  ,		%  Barco 20
0  ,		%  Barco 21
0  ,		%  Barco 22
0  ,		%  Barco 23
1  ,		%  Barco 24
1  ,		%  Barco 25
0  ,		%  Barco 26
0  ,		%  Barco 27
1  ,		%  Barco 28
0  ,		%  Barco 29
0  ,		%  Barco 30
1  ,		%  Barco 31
1  ,		%  Barco 32
1  ,		%  Barco 33
1  ,		%  Barco 34
0  ,		%  Barco 35
0  ,		%  Barco 36
0  ,		%  Barco 37
1  ,		%  Barco 38
1  ,		%  Barco 39
0  ,		%  Barco 40
0  ,		%  Barco 41
0  ,		%  Barco 42
0  ,		%  Barco 43
0  ,		%  Barco 44
1  ,		%  Barco 45
1  ,		%  Barco 46
0  ,		%  Barco 47
1  ,		%  Barco 48
0  ,		%  Barco 49
0  ,		%  Barco 50
1  ,		%  Barco 51
1  ,		%  Barco 52
1  ,		%  Barco 53
1  ,		%  Barco 54
0  ,		%  Barco 55
1  ,		%  Barco 56
1  ,		%  Barco 57
1  ,		%  Barco 58
1  ,		%  Barco 59
1  ,		%  Barco 60
1  ,		%  Barco 61
0  ,		%  Barco 62
1  ,		%  Barco 63
0  ,		%  Barco 64
0  ,		%  Barco 65
0  ,		%  Barco 66
 ]; 
